width = 26;

n_circuits = 22;

circuit_x = array1d(1..22, [3, 3, 3, 3, 3, 3, 3, 3, 3, 3, 3, 3, 3, 3, 3, 4, 4, 4,
    4, 4, 4, 4]);

circuit_y = array1d(1..22, [3, 4, 5, 6, 7, 8, 9, 10, 11, 12, 14, 15, 16, 17, 19,
    3, 4, 5, 7, 8, 11, 14]);

opt_height = 26;

max_y = 19;

